WARNING: for repeatability, setting FPU to use double precision
============================[ Problem Statistics ]=============================
|                                                                             |
|  Number of variables:           300                                         |
|  Number of clauses:            1281                                         |
|  Parse time:                   0.00 s                                       |
|                                                                             |
============================[ Search Statistics ]==============================
| Conflicts |          ORIGINAL         |          LEARNT          | Progress |
|           |    Vars  Clauses Literals |    Limit  Clauses Lit/Cl |          |
===============================================================================
|       100 |     300     1281     4734 |      469      100     15 |  0.001 % |
|       250 |     300     1281     4734 |      516      250     15 |  0.001 % |
|       475 |     300     1281     4734 |      568      475     16 |  0.001 % |
|       812 |     300     1281     4734 |      625      507     15 |  0.001 % |
|      1318 |     300     1281     4734 |      687      358     14 |  0.001 % |
|      2077 |     300     1281     4734 |      756      406     12 |  0.001 % |
|      3216 |     300     1281     4734 |      832      768     14 |  0.001 % |
|      4924 |     300     1281     4734 |      915      762     14 |  0.001 % |
|      7486 |     300     1281     4734 |     1006      496     12 |  0.001 % |
|     11330 |     300     1281     4734 |     1107      721     14 |  0.001 % |
===============================================================================
restarts              : 62
conflicts             : 16028          (138172 /sec)
decisions             : 20291          (0.00 % random) (174922 /sec)
propagations          : 819164         (7061759 /sec)
conflict literals     : 254184         (17.56 % deleted)
Memory used           : 19.00 MB
CPU time              : 0.116 s

SATISFIABLE
